WARNING: for repeatability, setting FPU to use double precision
============================[ Problem Statistics ]=============================
|                                                                             |
|  Number of variables:          1080                                         |
|  Number of clauses:            7287                                         |
|  Parse time:                   0.00 s                                       |
|                                                                             |
c ============================[ Search Statistics ]==============================
c | Conflicts |          ORIGINAL         |          LEARNT          | Progress |
c |           |    Vars  Clauses Literals |    Limit  Clauses Lit/Cl |          |
c ===============================================================================
c Switched to VSIDS.
c Switched to LRB.
c Switched to VSIDS.
c Switched to LRB.
c Switched to VSIDS.
c Switched to LRB.
c Switched to VSIDS.
c Switched to LRB.
c Switched to VSIDS.
c Switched to LRB.
c Switched to VSIDS.
c Switched to LRB.
c Switched to VSIDS.
c Switched to LRB.
c Switched to VSIDS.
c Switched to LRB.
c Switched to VSIDS.
c Switched to LRB.
c Switched to VSIDS.
c ===============================================================================
restarts                  : 4541
conflicts                 : 4609475        (2791 /sec)
decisions                 : 5585502        (0.00 % random) (3382 /sec)
propagations              : 2124658207     (1286555 /sec)
conflict literals         : 91841703       (47.59 % deleted)

conflicts w/ DIP found    : 1988597        (43.14 % of conflicts)
conflicts w/ dangerous DIP: 0              (0.00 % of conflicts)
conflicts w/ DIP-learning : 74080          (1.61 % of conflicts)
decisions on ext vars     : 4833668        (86.54 % of decisions)
total ext vars            : 18683       
tried delete ext vars     : 17264       
deleted ext vars          : 16947       
max ext vars              : 2635        

Memory used               : 67.00 MB
CPU time                  : 1651.43 s
DIP computation time      : 39.6507 s (2.40 % of total time)
ER_sel time               : 4.14976 s
ER_add time               : 0.057243 s
ER_delC time              : 0 s
ER_delV time              : 0.327224 s
ER_sub time               : 5.27656 s
ER_stat time              : 0 s

UNSATISFIABLE
